
Gurobi 10.0.3 (linux64, gurobi_cl) logging started Thu Nov  2 11:33:58 2023

Set parameter Username
Set parameter TimeLimit to value 3600
Set parameter LogFile to value "RCPSP_210.log"
Set parameter Threads to value 32
Academic license - for non-commercial use only - expires 2024-10-30
Using license file /home/jrivera6/gurobi-licenses/v1003/compute-0-34/gurobi.lic

Gurobi Optimizer version 10.0.3 build v10.0.3rc0 (linux64)
Copyright (c) 2023, Gurobi Optimization, LLC

Read MPS format model from file RCPSP_210.mps
Reading time = 0.01 seconds
RCPSP_210: 5339 rows, 2080 columns, 17054 nonzeros

CPU model: Intel(R) Xeon(R) Gold 6130 CPU @ 2.10GHz, instruction set [SSE2|AVX|AVX2|AVX512]
Thread count: 32 physical cores, 32 logical processors, using up to 32 threads

Optimize a model with 5339 rows, 2080 columns and 17054 nonzeros
Model fingerprint: 0x3d168682
Variable types: 32 continuous, 2048 integer (2048 binary)
Coefficient statistics:
  Matrix range     [1e+00, 2e+02]
  Objective range  [1e+00, 1e+00]
  Bounds range     [1e+00, 1e+00]
  RHS range        [1e+00, 2e+02]
Presolve removed 3348 rows and 1305 columns
Presolve time: 0.19s
Presolved: 1991 rows, 775 columns, 6263 nonzeros
Variable types: 31 continuous, 744 integer (744 binary)

Root relaxation: objective 5.600000e+01, 308 iterations, 0.00 seconds (0.00 work units)

    Nodes    |    Current Node    |     Objective Bounds      |     Work
 Expl Unexpl |  Obj  Depth IntInf | Incumbent    BestBd   Gap | It/Node Time

     0     0   56.00000    0   16          -   56.00000      -     -    0s
     0     0   56.00000    0   31          -   56.00000      -     -    0s
     0     0   56.00000    0   31          -   56.00000      -     -    0s
     0     0   56.00000    0   14          -   56.00000      -     -    0s
H    0     0                      81.0000000   56.00000  30.9%     -    0s
     0     0   56.00000    0   16   81.00000   56.00000  30.9%     -    0s
     0     0   56.00708    0   56   81.00000   56.00708  30.9%     -    0s
     0     0   56.00708    0   55   81.00000   56.00708  30.9%     -    0s
     0     0   56.19057    0   42   81.00000   56.19057  30.6%     -    1s
     0     0   57.00000    0   56   81.00000   57.00000  29.6%     -    1s
     0     0   57.00000    0   65   81.00000   57.00000  29.6%     -    1s
     0     0   57.00312    0   93   81.00000   57.00312  29.6%     -    1s
     0     0   57.00317    0   96   81.00000   57.00317  29.6%     -    1s
H    0     0                      80.0000000   57.00317  28.7%     -    1s
     0     0   57.08407    0   92   80.00000   57.08407  28.6%     -    1s
     0     0   57.13370    0  111   80.00000   57.13370  28.6%     -    1s
     0     0   57.56638    0   89   80.00000   57.56638  28.0%     -    1s
     0     0   57.62482    0   65   80.00000   57.62482  28.0%     -    1s
     0     0   57.62482    0   58   80.00000   57.62482  28.0%     -    1s
     0     0   57.88245    0   67   80.00000   57.88245  27.6%     -    1s
H    0     0                      77.0000000   57.88245  24.8%     -    1s
     0     0   57.88245    0   86   77.00000   57.88245  24.8%     -    1s
     0     0   58.09986    0  102   77.00000   58.09986  24.5%     -    2s
     0     0   58.12440    0   88   77.00000   58.12440  24.5%     -    2s
     0     0   58.12440    0   89   77.00000   58.12440  24.5%     -    2s
     0     0   58.16991    0   87   77.00000   58.16991  24.5%     -    2s
H    0     0                      73.0000000   58.21519  20.3%     -    2s
     0     0   58.21519    0   89   73.00000   58.21519  20.3%     -    2s
     0     0   58.21519    0   87   73.00000   58.21519  20.3%     -    2s
     0     0   58.21519    0   83   73.00000   58.21519  20.3%     -    2s
H    0     0                      72.0000000   58.21519  19.1%     -    2s
     0     0   58.25472    0   84   72.00000   58.25472  19.1%     -    2s
     0     0   58.31049    0   70   72.00000   58.31049  19.0%     -    2s
     0     0   58.31049    0   74   72.00000   58.31049  19.0%     -    2s
     0     0   58.49314    0   62   72.00000   58.49314  18.8%     -    2s
     0     0   58.58596    0   59   72.00000   58.58596  18.6%     -    2s
     0     0   58.60300    0   93   72.00000   58.60300  18.6%     -    2s
     0     0   58.60300    0   92   72.00000   58.60300  18.6%     -    2s
     0     0   58.61487    0   86   72.00000   58.61487  18.6%     -    2s
     0     0   58.61487    0   86   72.00000   58.61487  18.6%     -    2s
     0     0   58.97514    0   62   72.00000   58.97514  18.1%     -    2s
     0     0   58.98915    0   62   72.00000   58.98915  18.1%     -    3s
     0     0   58.98915    0   64   72.00000   58.98915  18.1%     -    3s
     0     0   59.09982    0   63   72.00000   59.09982  17.9%     -    3s
     0     0   59.09982    0   61   72.00000   59.09982  17.9%     -    3s
     0     0   59.10766    0   66   72.00000   59.10766  17.9%     -    3s
     0     0   59.10766    0   65   72.00000   59.10766  17.9%     -    3s
     0     0   59.10766    0   77   72.00000   59.10766  17.9%     -    3s
     0     0   59.13333    0   73   72.00000   59.13333  17.9%     -    3s
     0     0   59.13333    0   68   72.00000   59.13333  17.9%     -    3s
     0     0   59.13333    0   82   72.00000   59.13333  17.9%     -    3s
     0     0   59.13333    0   79   72.00000   59.13333  17.9%     -    3s
     0     0   59.13333    0   56   72.00000   59.13333  17.9%     -    4s
     0     0   59.13333    0   57   72.00000   59.13333  17.9%     -    4s
     0     0   59.13333    0   61   72.00000   59.13333  17.9%     -    4s
     0     0   59.13333    0   60   72.00000   59.13333  17.9%     -    4s
     0     0   59.13333    0   45   72.00000   59.13333  17.9%     -    4s
     0     0   60.00000    0   14   72.00000   60.00000  16.7%     -    9s
     0     0   60.00000    0   50   72.00000   60.00000  16.7%     -   10s
     0     0   63.00000    0   59   72.00000   63.00000  12.5%     -   11s
     0     0   64.00000    0   79   72.00000   64.00000  11.1%     -   11s
     0     0   64.00000    0   79   72.00000   64.00000  11.1%     -   11s
     0     0   67.00000    0   36   72.00000   67.00000  6.94%     -   13s
     0     0   67.00000    0   42   72.00000   67.00000  6.94%     -   14s
     0     0   67.00000    0   43   72.00000   67.00000  6.94%     -   15s
     0     0   67.00000    0   52   72.00000   67.00000  6.94%     -   16s
     0     0   67.00000    0   61   72.00000   67.00000  6.94%     -   16s
H    0     0                      71.0000000   67.00000  5.63%     -   17s
     0     0   67.00000    0   68   71.00000   67.00000  5.63%     -   17s
H    0     0                      70.0000000   67.00000  4.29%     -   18s
H    0     0                      69.0000000   67.00000  2.90%     -   18s
     0     0   67.00000    0   89   69.00000   67.00000  2.90%     -   18s
     0     0   67.00000    0   87   69.00000   67.00000  2.90%     -   18s
     0     0   67.00000    0   82   69.00000   67.00000  2.90%     -   18s
     0     0   67.00000    0   88   69.00000   67.00000  2.90%     -   19s
     0     0   67.00000    0   78   69.00000   67.00000  2.90%     -   19s
     0     0   67.00000    0   68   69.00000   67.00000  2.90%     -   20s
     0     0   67.00000    0   20   69.00000   67.00000  2.90%     -   21s
     0     2   67.00000    0   20   69.00000   67.00000  2.90%     -   22s

Cutting planes:
  Learned: 2
  Gomory: 2
  Cover: 12
  Implied bound: 25
  Clique: 7
  MIR: 93
  Inf proof: 1
  RLT: 5
  Relax-and-lift: 17

Explored 207 nodes (12101 simplex iterations) in 24.59 seconds (1.13 work units)
Thread count was 32 (of 32 available processors)

Solution count 8: 69 70 71 ... 81

Optimal solution found (tolerance 1.00e-04)
Best objective 6.900000000000e+01, best bound 6.900000000000e+01, gap 0.0000%

Wrote result file 'RCPSP_210.sol'

